BAYES
144
2 2 2 2 2 2 2 2 2 2 2 2 2 2 2 2 2 2 2 2 2 2 2 2 2 2 2 2 2 2 2 2 2 2 2 2 2 2 2 2 2 2 2 2 2 2 2 2 2 2 2 2 2 2 2 2 2 2 2 2 2 2 2 2 2 2 2 2 2 2 2 2 2 2 2 2 2 2 2 2 2 2 2 2 2 2 2 2 2 2 2 2 2 2 2 2 2 2 2 2 2 2 2 2 2 2 2 2 2 2 2 2 2 2 2 2 2 2 2 2 2 2 2 2 2 2 2 2 2 2 2 2 2 2 2 2 2 2 2 2 2 2 2 2
144
3 1 12 0
3 2 13 1
3 3 14 2
3 4 15 3
3 5 16 4
3 6 17 5
3 7 18 6
3 8 19 7
3 9 20 8
3 10 21 9
3 11 22 10
2 12 11
3 13 24 12
3 14 25 13
3 15 26 14
3 16 27 15
3 17 28 16
3 18 29 17
3 19 30 18
3 20 31 19
3 21 32 20
3 22 33 21
3 23 34 22
2 24 23
3 25 36 24
3 26 37 25
3 27 38 26
3 28 39 27
3 29 40 28
3 30 41 29
3 31 42 30
3 32 43 31
3 33 44 32
3 34 45 33
3 35 46 34
2 36 35
3 37 48 36
3 38 49 37
3 39 50 38
3 40 51 39
3 41 52 40
3 42 53 41
3 43 54 42
3 44 55 43
3 45 56 44
3 46 57 45
3 47 58 46
2 48 47
3 49 60 48
3 50 61 49
3 51 62 50
3 52 63 51
3 53 64 52
3 54 65 53
3 55 66 54
3 56 67 55
3 57 68 56
3 58 69 57
3 59 70 58
2 60 59
3 61 72 60
3 62 73 61
3 63 74 62
3 64 75 63
3 65 76 64
3 66 77 65
3 67 78 66
3 68 79 67
3 69 80 68
3 70 81 69
3 71 82 70
2 72 71
3 73 84 72
3 74 85 73
3 75 86 74
3 76 87 75
3 77 88 76
3 78 89 77
3 79 90 78
3 80 91 79
3 81 92 80
3 82 93 81
3 83 94 82
2 84 83
3 85 96 84
3 86 97 85
3 87 98 86
3 88 99 87
3 89 100 88
3 90 101 89
3 91 102 90
3 92 103 91
3 93 104 92
3 94 105 93
3 95 106 94
2 96 95
3 97 108 96
3 98 109 97
3 99 110 98
3 100 111 99
3 101 112 100
3 102 113 101
3 103 114 102
3 104 115 103
3 105 116 104
3 106 117 105
3 107 118 106
2 108 107
3 109 120 108
3 110 121 109
3 111 122 110
3 112 123 111
3 113 124 112
3 114 125 113
3 115 126 114
3 116 127 115
3 117 128 116
3 118 129 117
3 119 130 118
2 120 119
3 121 132 120
3 122 133 121
3 123 134 122
3 124 135 123
3 125 136 124
3 126 137 125
3 127 138 126
3 128 139 127
3 129 140 128
3 130 141 129
3 131 142 130
2 132 131
2 144 132
2 145 133
2 146 134
2 147 135
2 148 136
2 149 137
2 150 138
2 151 139
2 152 140
2 153 141
2 154 142
1  143
8
1 0 0 1 0 1 0 1
8
1 0 0 1 1 0 0 1
8
1 0 1 0 0 1 0 1
8
0 1 0 1 0 1 0 1
8
1 0 0 1 1 0 0 1
8
0 1 1 0 1 0 0 1
8
1 0 0 1 0 1 1 0
8
1 0 0 1 0 1 0 1
8
1 0 1 0 1 0 1 0
8
1 0 1 0 1 0 0 1
8
0 1 1 0 0 1 0 1
4
0 1 0 1
8
1 0 0 1 1 0 0 1
8
0 1 1 0 1 0 0 1
8
0 1 0 1 0 1 0 1
8
1 0 0 1 1 0 0 1
8
1 0 0 1 1 0 1 0
8
1 0 0 1 1 0 1 0
8
1 0 1 0 0 1 0 1
8
0 1 1 0 0 1 1 0
8
0 1 0 1 1 0 0 1
8
1 0 0 1 0 1 1 0
8
1 0 1 0 0 1 1 0
4
1 0 0 1
8
1 0 0 1 0 1 0 1
8
1 0 0 1 0 1 0 1
8
0 1 0 1 1 0 1 0
8
1 0 1 0 1 0 0 1
8
1 0 1 0 1 0 1 0
8
1 0 0 1 1 0 0 1
8
1 0 0 1 1 0 0 1
8
0.3646480115258588 0.6353519884741412 0.5013545230423023 0.49864547695769773 0.3819927845423377 0.6180072154576624 0.3309787069009802 0.6690212930990198
8
0.764270914999381 0.23572908500061898 0.2891036224616097 0.7108963775383903 0.7898982174429031 0.21010178255709688 0.6635762329401733 0.3364237670598267
8
0 1 1 0 1 0 1 0
8
1 0 0 1 1 0 1 0
4
1 0 0 1
8
0 1 0 1 0 1 0 1
8
1 0 1 0 1 0 0 1
8
1 0 0 1 1 0 0 1
8
1 0 0 1 0 1 1 0
8
0 1 0 1 1 0 0 1
8
0 1 0 1 0 1 1 0
8
0 1 0 1 1 0 1 0
8
0.9982220367819542 0.0017779632180458175 0.3011936142934668 0.6988063857065332 0.2946137629705187 0.7053862370294813 0.6469782462315214 0.35302175376847866
8
1 0 0 1 0 1 0 1
8
1 0 0 1 1 0 1 0
8
0 1 1 0 0 1 0 1
4
1 0 1 0
8
0 1 1 0 1 0 0 1
8
1 0 0 1 1 0 0 1
8
0 1 1 0 1 0 0 1
8
0 1 0 1 1 0 0 1
8
0 1 0 1 0 1 0 1
8
1 0 0 1 0 1 1 0
8
0.5880398069160765 0.41196019308392356 0.527380088434387 0.472619911565613 0.0063280946651103915 0.9936719053348896 0.6991434098955528 0.30085659010444704
8
1 0 1 0 0 1 0 1
8
1 0 1 0 0 1 0 1
8
1 0 1 0 1 0 0 1
8
1 0 1 0 0 1 1 0
4
0 1 0 1
8
0 1 0 1 0 1 1 0
8
0 1 1 0 0 1 1 0
8
0.29906675035607344 0.7009332496439266 0.4437512743460455 0.5562487256539546 0.21042771011620176 0.7895722898837984 0.6455226122831538 0.35447738771684617
8
0 1 0 1 0 1 1 0
8
1 0 0 1 1 0 1 0
8
0 1 1 0 0 1 1 0
8
1 0 0 1 0 1 1 0
8
0 1 1 0 1 0 0 1
8
1 0 0 1 1 0 0 1
8
0 1 1 0 1 0 1 0
8
0 1 1 0 0 1 1 0
4
0 1 0 1
8
1 0 1 0 0 1 0 1
8
0 1 0 1 0 1 0 1
8
1 0 1 0 0 1 1 0
8
1 0 1 0 0 1 0 1
8
0 1 1 0 0 1 1 0
8
0 1 0 1 0 1 1 0
8
0.6212150809471988 0.3787849190528012 0.9654022961598295 0.034597703840170455 0.5744420196273643 0.42555798037263565 0.4094640626400065 0.5905359373599935
8
1 0 1 0 1 0 0 1
8
1 0 0 1 1 0 1 0
8
1 0 0 1 1 0 1 0
8
0 1 1 0 0 1 0 1
4
0.7957810666758292 0.20421893332417082 0.7687811576947435 0.2312188423052565
8
1 0 0 1 0 1 1 0
8
0 1 1 0 1 0 1 0
8
0 1 1 0 1 0 0 1
8
0.34473379067923726 0.6552662093207627 0.38670867066695946 0.6132913293330406 0.06538934143658083 0.9346106585634192 0.5102014457784546 0.48979855422154545
8
1 0 0 1 0 1 1 0
8
1 0 0 1 0 1 0 1
8
1 0 1 0 0 1 1 0
8
0 1 0 1 0 1 1 0
8
0 1 0 1 1 0 0 1
8
1 0 0 1 0 1 0 1
8
0.2894975788138786 0.7105024211861214 0.7496392999215533 0.25036070007844674 0.33717246039875076 0.6628275396012492 0.6519623741769033 0.34803762582309666
4
1 0 0 1
8
0 1 0 1 0 1 1 0
8
0 1 0 1 1 0 0 1
8
1 0 0 1 1 0 1 0
8
1 0 1 0 1 0 1 0
8
1 0 0 1 0 1 1 0
8
0 1 0 1 1 0 1 0
8
1 0 1 0 0 1 0 1
8
0 1 0 1 0 1 1 0
8
1 0 0 1 1 0 0 1
8
0 1 1 0 0 1 1 0
8
0 1 1 0 0 1 1 0
4
0.6517138196797151 0.34828618032028497 0.4263823986443564 0.5736176013556435
8
0 1 0 1 0 1 1 0
8
1 0 0 1 1 0 1 0
8
1 0 0 1 1 0 1 0
8
0 1 1 0 1 0 0 1
8
1 0 1 0 1 0 0 1
8
0.7320337090338851 0.2679662909661149 0.04800327305436649 0.9519967269456335 0.8265594605669858 0.17344053943301424 0.5326488693122866 0.46735113068771333
8
0 1 0 1 1 0 1 0
8
0 1 1 0 1 0 1 0
8
0 1 1 0 1 0 0 1
8
0 1 1 0 0 1 1 0
8
1 0 1 0 1 0 1 0
4
0 1 0 1
8
1 0 1 0 1 0 0 1
8
1 0 1 0 0 1 1 0
8
0 1 1 0 0 1 0 1
8
0 1 1 0 1 0 1 0
8
0 1 1 0 0 1 1 0
8
0.4491494143808416 0.5508505856191583 0.5869106844810102 0.41308931551898975 0.45379676925733264 0.5462032307426673 0.1760581965852299 0.8239418034147701
8
0 1 0 1 0 1 1 0
8
1 0 1 0 0 1 1 0
8
1 0 1 0 0 1 1 0
8
1 0 0 1 0 1 0 1
8
0 1 0 1 1 0 0 1
4
1 0 0 1
4
1 0 1 0
4
0 1 1 0
4
0 1 0 1
4
0 1 0 1
4
0.9893332492740631 0.010666750725936952 0.9014954257331488 0.09850457426685125
4
0 1 1 0
4
0 1 0 1
4
0 1 1 0
4
0.633323270946061 0.366676729053939 0.46684175118636095 0.533158248813639
4
1 0 0 1
4
1 0 1 0
2
0.5810190134144254 0.41898098658557453
